Route #1: 1 6 29 14 59 13 56 55
Route #2: 1 49 10 64 26 22 16 57 46
Route #3: 1 48 34 19 32 27 3 67 44
Route #4: 1 54 43 40 45 41 65 37 5 15 36
Route #5: 1 23 53 52 25 30 60 33 66 17
Route #6: 1 28 42 11 39 18 8
Route #7: 1 62 63 58 31 4 61
Route #8: 1 47 51 12 20 21
Route #9: 1 24 38 9 50 2
Route #10: 1 7 35
cost 1269
